345 5
10 10 10 10 10 

0 0 0 0 0 0 5 2 14 26 38 50 
0 0 0 0 0 0 2 3 4 
1 2 0 0 0 0 1 5 
8 9 0 0 0 0 1 5 
7 10 0 0 0 0 3 8 6 195 
1 7 0 0 0 0 4 12 11 10 7 
2 9 0 0 0 0 1 9 
5 8 0 0 0 0 1 9 
5 7 0 0 0 0 1 13 
8 6 0 0 0 0 1 13 
10 7 0 0 0 0 1 13 
3 10 0 0 0 0 1 13 
0 0 0 0 0 0 1 62 
0 0 0 0 0 0 6 15 19 22 23 24 317 
9 0 4 0 0 0 2 21 16 
1 0 6 0 0 0 1 17 
10 0 4 0 0 0 1 18 
3 0 9 0 0 0 1 20 
6 0 8 0 0 0 1 20 
10 0 10 0 0 0 1 25 
6 0 10 0 0 0 1 25 
2 0 8 0 0 0 1 25 
4 0 9 0 0 0 1 25 
8 0 7 0 0 0 1 25 
0 0 0 0 0 0 1 62 
0 0 0 0 0 0 4 27 28 36 280 
5 0 0 0 0 1 2 32 29 
8 0 0 0 0 8 2 35 30 
10 0 0 0 0 8 1 30 
7 0 0 0 0 7 1 31 
2 0 0 0 0 9 1 33 
10 0 0 0 0 9 1 34 
6 0 0 0 0 9 1 37 
7 0 0 0 0 8 1 37 
4 0 0 0 0 9 1 37 
3 0 0 0 0 7 1 37 
0 0 0 0 0 0 1 62 
0 0 0 0 0 0 4 39 46 47 48 
8 7 0 0 0 0 4 45 43 40 76 
7 4 0 0 0 0 1 41 
9 10 0 0 0 0 1 42 
1 7 0 0 0 0 1 44 
10 3 0 0 0 0 1 44 
3 8 0 0 0 0 1 49 
5 10 0 0 0 0 1 49 
3 8 0 0 0 0 1 49 
1 8 0 0 0 0 1 49 
5 10 0 0 0 0 1 49 
0 0 0 0 0 0 1 62 
0 0 0 0 0 0 4 51 52 53 56 
6 0 0 0 0 10 2 58 54 
1 0 0 0 0 3 2 58 54 
1 0 0 0 0 6 2 58 55 
10 0 0 0 0 10 1 55 
4 0 0 0 0 8 3 60 57 338 
1 0 0 0 0 6 2 60 57 
3 0 0 0 0 5 1 59 
4 0 0 0 0 9 1 59 
2 0 0 0 0 8 1 61 
6 0 0 0 0 10 1 61 
0 0 0 0 0 0 1 62 
0 0 0 0 0 0 5 63 75 87 99 111 
0 0 0 0 0 0 4 64 67 68 71 
6 0 0 0 0 5 1 65 
3 0 0 0 0 5 2 70 66 
10 0 0 0 0 6 2 72 69 
10 0 0 0 0 10 2 73 72 
9 0 0 0 0 9 1 69 
6 0 0 0 0 2 1 73 
8 0 0 0 0 10 2 72 119 
10 0 0 0 0 10 1 72 
1 0 0 0 0 8 1 74 
5 0 0 0 0 10 1 74 
0 0 0 0 0 0 1 123 
0 0 0 0 0 0 1 76 
8 0 0 2 0 0 3 79 78 77 
5 0 0 7 0 0 5 85 84 82 80 306 
4 0 0 8 0 0 2 84 80 
1 0 0 10 0 0 1 80 
6 0 0 7 0 0 1 81 
7 0 0 9 0 0 1 83 
8 0 0 10 0 0 1 83 
7 0 0 8 0 0 1 86 
9 0 0 8 0 0 1 86 
2 0 0 6 0 0 1 86 
0 0 0 0 0 0 1 123 
0 0 0 0 0 0 3 88 90 94 
7 4 0 0 0 0 2 92 89 
1 6 0 0 0 0 2 96 91 
9 4 0 0 0 0 3 97 96 93 
1 6 0 0 0 0 2 97 93 
3 10 0 0 0 0 2 96 93 
2 9 0 0 0 0 1 95 
8 7 0 0 0 0 2 95 329 
5 10 0 0 0 0 1 98 
10 9 0 0 0 0 1 98 
6 10 0 0 0 0 1 98 
0 0 0 0 0 0 1 123 
0 0 0 0 0 0 1 100 
1 0 0 0 1 0 3 106 102 101 
5 0 0 0 10 0 2 104 103 
4 0 0 0 8 0 2 104 103 
5 0 0 0 8 0 3 109 108 107 
6 0 0 0 10 0 3 108 105 187 
4 0 0 0 10 0 1 107 
5 0 0 0 10 0 1 107 
3 0 0 0 6 0 1 110 
8 0 0 0 6 0 1 110 
6 0 0 0 6 0 1 110 
0 0 0 0 0 0 1 123 
0 0 0 0 0 0 3 112 116 117 
2 0 0 3 0 0 2 121 113 
5 0 0 8 0 0 2 118 114 
5 0 0 8 0 0 2 120 115 
1 0 0 7 0 0 1 119 
6 0 0 4 0 0 1 118 
10 0 0 10 0 0 1 118 
3 0 0 8 0 0 2 122 203 
7 0 0 10 0 0 1 122 
6 0 0 7 0 0 1 122 
10 0 0 10 0 0 1 122 
0 0 0 0 0 0 1 123 
0 0 0 0 0 0 5 124 136 148 160 172 
0 0 0 0 0 0 6 125 129 131 132 133 134 
1 0 0 0 0 3 2 126 189 
4 0 0 0 0 7 1 127 
9 0 0 0 0 6 1 128 
10 0 0 0 0 8 1 130 
4 0 0 0 0 9 1 130 
1 0 0 0 0 9 1 135 
5 0 0 0 0 9 1 135 
7 0 0 0 0 8 1 135 
8 0 0 0 0 10 1 135 
5 0 0 0 0 6 1 135 
0 0 0 0 0 0 1 184 
0 0 0 0 0 0 4 137 138 146 322 
9 0 0 4 0 0 2 145 139 
2 0 0 6 0 0 2 143 142 
3 0 0 6 0 0 1 140 
3 0 0 8 0 0 1 141 
7 0 0 9 0 0 1 144 
7 0 0 10 0 0 1 145 
9 0 0 8 0 0 1 144 
6 0 0 8 0 0 1 147 
8 0 0 7 0 0 1 147 
6 0 0 9 0 0 1 147 
0 0 0 0 0 0 1 184 
0 0 0 0 0 0 4 149 151 153 156 
7 0 0 0 0 4 1 150 
10 0 0 0 0 7 2 155 152 
6 0 0 0 0 9 2 155 154 
4 0 0 0 0 8 2 157 154 
8 0 0 0 0 8 1 154 
10 0 0 0 0 9 2 158 305 
9 0 0 0 0 8 1 157 
8 0 0 0 0 4 1 157 
5 0 0 0 0 10 1 159 
1 0 0 0 0 8 1 159 
0 0 0 0 0 0 1 184 
0 0 0 0 0 0 3 161 162 164 
5 0 0 0 0 1 3 167 165 163 
5 0 0 0 0 10 2 165 163 
4 0 0 0 0 8 2 169 166 
10 0 0 0 0 6 2 168 167 
7 0 0 0 0 10 1 166 
7 0 0 0 0 10 2 168 306 
1 0 0 0 0 2 1 169 
7 0 0 0 0 10 1 170 
5 0 0 0 0 10 1 170 
2 0 0 0 0 8 1 171 
0 0 0 0 0 0 1 184 
0 0 0 0 0 0 3 173 174 178 
5 0 3 0 0 0 2 177 176 
3 0 10 0 0 0 1 175 
1 0 7 0 0 0 2 179 177 
4 0 10 0 0 0 2 180 179 
5 0 6 0 0 0 2 182 180 
1 0 9 0 0 0 3 182 180 186 
1 0 5 0 0 0 2 182 181 
3 0 10 0 0 0 1 181 
7 0 8 0 0 0 1 183 
6 0 7 0 0 0 1 183 
0 0 0 0 0 0 1 184 
0 0 0 0 0 0 5 185 197 219 241 263 
0 0 0 0 0 0 4 186 187 188 190 
4 0 1 0 0 0 2 193 189 
3 0 8 0 0 0 2 193 189 
3 0 6 0 0 0 2 193 191 
10 0 9 0 0 0 1 191 
3 0 8 0 0 0 2 191 254 
9 0 9 0 0 0 2 195 192 
3 0 9 0 0 0 1 194 
4 0 9 0 0 0 1 194 
5 0 9 0 0 0 1 196 
9 0 7 0 0 0 1 196 
0 0 0 0 0 0 5 285 297 309 321 333 
0 0 0 0 0 0 1 198 
3 0 0 6 0 1 2 217 199 
1 0 0 5 0 7 3 216 200 249 
4 0 0 8 0 9 4 215 214 213 201 
5 0 0 6 0 8 2 212 202 
8 0 0 8 0 6 3 211 210 203 
6 0 0 8 0 7 3 209 208 204 
7 0 0 10 0 10 1 205 
2 0 0 9 0 10 1 206 
4 0 0 10 0 7 1 207 
1 0 0 10 0 7 1 218 
5 0 0 8 0 7 1 218 
2 0 0 4 0 5 1 218 
9 0 0 9 0 8 1 218 
3 0 0 8 0 7 1 218 
7 0 0 5 0 10 1 218 
1 0 0 8 0 8 1 218 
8 0 0 7 0 6 1 218 
1 0 0 4 0 8 1 218 
10 0 0 10 0 10 1 218 
7 0 0 7 0 9 1 218 
0 0 0 0 0 0 1 345 
0 0 0 0 0 0 4 220 221 226 227 
9 7 0 0 2 0 3 229 228 222 
6 8 0 0 3 0 6 234 231 229 228 224 339 
3 9 0 0 10 0 1 223 
9 8 0 0 9 0 3 234 231 224 
7 6 0 0 8 0 1 225 
10 6 0 0 6 0 2 232 230 
9 4 0 0 10 0 2 232 231 
7 9 0 0 8 0 1 228 
6 10 0 0 7 0 2 239 232 
3 8 0 0 8 0 1 230 
7 7 0 0 9 0 2 239 233 
6 3 0 0 9 0 2 239 233 
1 9 0 0 8 0 1 233 
8 9 0 0 10 0 2 238 235 
9 10 0 0 10 0 2 239 236 
2 7 0 0 8 0 1 236 
9 10 0 0 4 0 1 237 
7 6 0 0 6 0 1 240 
9 7 0 0 5 0 1 240 
10 7 0 0 10 0 1 240 
0 0 0 0 0 0 1 345 
0 0 0 0 0 0 1 242 
5 0 0 5 0 4 2 245 243 
10 0 0 5 0 6 1 244 
9 0 0 8 0 5 1 246 
1 0 0 6 0 3 1 246 
2 0 0 8 0 10 2 249 247 
7 0 0 9 0 7 3 261 253 248 
10 0 0 10 0 5 3 254 252 250 
6 0 0 10 0 10 3 254 252 251 
9 0 0 10 0 8 1 251 
2 0 0 5 0 8 3 259 258 255 
8 0 0 8 0 7 2 260 259 
9 0 0 6 0 8 2 258 257 
8 0 0 9 0 10 2 256 290 
7 0 0 5 0 7 1 257 
4 0 0 6 0 8 1 257 
3 0 0 8 0 10 1 262 
9 0 0 8 0 10 1 262 
2 0 0 7 0 10 1 262 
6 0 0 10 0 8 1 262 
1 0 0 7 0 6 1 262 
0 0 0 0 0 0 1 345 
0 0 0 0 0 0 1 264 
2 3 0 0 4 0 1 265 
5 10 0 0 5 0 2 267 266 
1 6 0 0 9 0 1 268 
7 10 0 0 7 0 1 268 
4 10 0 0 8 0 1 269 
1 6 0 0 5 0 2 271 270 
7 7 0 0 10 0 2 274 272 
3 6 0 0 6 0 1 272 
7 10 0 0 10 0 4 277 276 275 273 
10 10 0 0 10 0 5 283 282 280 279 278 
1 3 0 0 7 0 5 283 282 280 279 278 
1 6 0 0 9 0 4 283 282 280 279 
10 10 0 0 9 0 4 282 280 279 278 
1 10 0 0 7 0 3 283 282 278 
2 8 0 0 10 0 2 281 315 
3 8 0 0 6 0 1 281 
1 10 0 0 7 0 1 281 
5 4 0 0 10 0 1 284 
7 7 0 0 7 0 1 284 
2 6 0 0 4 0 1 284 
0 0 0 0 0 0 1 345 
0 0 0 0 0 0 5 286 288 292 293 295 
3 0 5 0 0 0 3 291 287 299 
2 0 7 0 0 0 1 289 
9 0 7 0 0 0 1 289 
7 0 10 0 0 0 1 290 
2 0 5 0 0 0 1 294 
9 0 6 0 0 0 1 294 
9 0 8 0 0 0 1 294 
4 0 9 0 0 0 1 294 
7 0 10 0 0 0 1 296 
3 0 8 0 0 0 1 296 
0 0 0 0 0 0 1 345 
0 0 0 0 0 0 1 298 
10 4 0 0 0 0 2 302 299 
3 10 0 0 0 0 2 301 300 
5 4 0 0 0 0 2 305 303 
9 10 0 0 0 0 2 305 303 
8 10 0 0 0 0 3 307 304 343 
9 6 0 0 0 0 2 307 306 
9 10 0 0 0 0 1 305 
4 6 0 0 0 0 1 306 
7 5 0 0 0 0 1 308 
3 10 0 0 0 0 1 308 
0 0 0 0 0 0 1 345 
0 0 0 0 0 0 3 310 312 314 
1 0 0 2 0 0 2 313 311 
3 0 0 8 0 0 2 319 315 
1 0 0 3 0 0 2 319 315 
8 0 0 8 0 0 3 319 316 340 
4 0 0 9 0 0 2 319 316 
10 0 0 10 0 0 1 316 
4 0 0 10 0 0 2 318 317 
4 0 0 7 0 0 1 320 
1 0 0 9 0 0 1 320 
6 0 0 9 0 0 1 320 
0 0 0 0 0 0 1 345 
0 0 0 0 0 0 1 322 
7 0 0 1 0 0 4 328 327 325 323 
7 0 0 9 0 0 1 324 
6 0 0 10 0 0 1 326 
4 0 0 7 0 0 1 326 
10 0 0 5 0 0 3 331 330 329 
7 0 0 9 0 0 4 331 330 329 334 
6 0 0 9 0 0 2 330 329 
3 0 0 10 0 0 1 332 
3 0 0 10 0 0 1 332 
4 0 0 5 0 0 1 332 
0 0 0 0 0 0 1 345 
0 0 0 0 0 0 3 334 335 336 
7 0 0 0 0 5 1 337 
3 0 0 0 0 4 1 337 
4 0 0 0 0 9 1 337 
3 0 0 0 0 10 2 339 338 
10 0 0 0 0 7 2 341 340 
8 0 0 0 0 4 2 341 340 
4 0 0 0 0 10 2 343 342 
9 0 0 0 0 9 2 343 342 
1 0 0 0 0 8 1 344 
1 0 0 0 0 9 1 344 
0 0 0 0 0 0 1 345 
0 0 0 0 0 0 0 
